Route #1: 1 82 464 495 300 111 320 402 1 
Route #2: 1 26 418 511 450 452 339 217 377 264 416 369 1 
Route #3: 1 48 235 271 427 221 487 1 
Route #4: 1 79 273 231 302 191 1 
Route #5: 1 242 261 229 365 376 30 493 331 351 406 333 332 328 520 459 1 
Route #6: 1 472 502 275 409 308 254 368 431 316 64 480 1 
Route #7: 1 184 352 230 440 429 225 437 394 435 389 521 285 262 373 496 366 1 
Route #8: 1 187 413 420 512 469 292 278 367 1 
Route #9: 1 284 68 454 266 206 477 483 307 443 286 404 441 432 1 
Route #10: 1 179 347 299 207 290 322 518 1 
Route #11: 1 349 470 291 341 70 403 476 471 474 411 362 1 
Route #12: 1 387 110 357 354 228 250 461 319 370 1 
Route #13: 1 481 280 276 446 465 515 421 508 215 257 326 76 223 1 
Route #14: 1 27 265 360 497 213 445 282 447 382 258 381 289 355 375 491 1 
Route #15: 1 455 298 356 488 314 419 523 388 438 59 1 
Route #16: 1 114 504 310 433 374 321 211 475 430 244 1 
Route #17: 1 118 338 359 148 1 
Route #18: 1 67 301 514 344 423 267 295 378 309 516 1 
Route #19: 1 510 93 24 486 1 
Route #20: 1 5 337 78 1 
Route #21: 1 522 330 21 296 281 277 232 1 
Route #22: 1 101 169 327 448 272 1 
Route #23: 1 117 212 363 236 358 350 311 220 343 379 384 1 
Route #24: 1 468 263 218 139 345 279 248 1 
Route #25: 1 3 198 408 325 1 
Route #26: 1 161 484 401 392 253 457 414 422 348 1 
Route #27: 1 1 393 517 240 317 1 
Route #28: 1 144 415 294 224 453 274 451 234 241 371 209 324 407 1 
Route #29: 1 107 283 288 237 466 390 417 449 1 
Route #30: 1 177 397 498 426 473 386 501 268 1 
Route #31: 1 121 424 499 400 428 312 463 1 
Route #32: 1 172 122 1 
Route #33: 1 503 188 456 485 313 492 340 405 410 364 1 
Route #34: 1 94 270 216 260 256 361 391 1 
Route #35: 1 138 372 33 1 
Route #36: 1 204 127 1 
Route #37: 1 96 227 304 490 509 482 1 
Route #38: 1 61 249 247 315 214 478 1 
Route #39: 1 36 210 287 293 353 396 346 1 
Route #40: 1 105 219 251 297 323 238 412 335 1 
Route #41: 1 50 500 269 385 208 329 1 
Route #42: 1 86 226 439 245 442 1 
Route #43: 1 73 306 252 383 342 334 336 305 1 
Route #44: 1 102 189 1 
Route #45: 1 125 2 239 1 
Route #46: 1 458 83 380 246 255 505 494 1 
Route #47: 1 154 87 1 
Route #48: 1 12 131 1 
Route #49: 1 99 519 233 222 425 479 398 506 1 
Route #50: 1 160 399 395 467 259 1 
Route #51: 1 202 489 434 318 507 436 1 
Route #52: 1 95 444 243 462 460 1 
Route #53: 1 128 303 513 1 
Route #54: 1 197 1 
Route #55: 1 60 1 
Route #56: 1 103 84 1 
Route #57: 1 193 1 
Route #58: 1 7 1 
Route #59: 1 173 1 
Route #60: 1 29 4 1 
Route #61: 1 157 120 1 
Route #62: 1 62 1 
Route #63: 1 31 40 1 
Route #64: 1 200 132 1 
Route #65: 1 81 178 1 
Route #66: 1 150 1 
Route #67: 1 49 28 1 
Route #68: 1 69 1 
Route #69: 1 134 1 
Route #70: 1 44 1 
Route #71: 1 183 1 
Route #72: 1 167 45 1 
Route #73: 1 156 1 
Route #74: 1 15 1 
Route #75: 1 149 1 
Route #76: 1 32 1 
Route #77: 1 98 1 
Route #78: 1 164 66 1 
Route #79: 1 108 1 
Route #80: 1 55 155 1 
Route #81: 1 152 1 
Route #82: 1 72 1 
Route #83: 1 58 185 1 
Route #84: 1 52 89 1 
Route #85: 1 53 1 
Route #86: 1 47 205 1 
Route #87: 1 9 1 
Route #88: 1 129 1 
Route #89: 1 57 130 1 
Route #90: 1 166 1 
Route #91: 1 51 168 1 
Route #92: 1 6 1 
Route #93: 1 190 1 
Route #94: 1 63 1 
Route #95: 1 65 1 
Route #96: 1 165 1 
Route #97: 1 109 1 
Route #98: 1 137 42 1 
Route #99: 1 136 1 
Route #100: 1 100 1 
Route #101: 1 38 1 
Route #102: 1 143 1 
Route #103: 1 104 74 1 
Route #104: 1 41 1 
Route #105: 1 23 1 
Route #106: 1 133 175 1 
Route #107: 1 124 171 1 
Route #108: 1 163 123 1 
Route #109: 1 162 1 
Route #110: 1 35 1 
Route #111: 1 112 1 
Route #112: 1 90 1 
Route #113: 1 11 1 
Route #114: 1 34 1 
Route #115: 1 186 1 
Route #116: 1 116 1 
Route #117: 1 97 1 
Route #118: 1 85 1 
Route #119: 1 174 1 
Route #120: 1 106 1 
Route #121: 1 18 1 
Route #122: 1 39 1 
Route #123: 1 146 1 
Route #124: 1 159 1 
Route #125: 1 19 1 
Route #126: 1 181 1 
Route #127: 1 20 1 
Route #128: 1 158 1 
Route #129: 1 16 1 
Route #130: 1 119 1 
Route #131: 1 14 126 1 
Route #132: 1 195 1 
Route #133: 1 203 1 
Route #134: 1 13 1 
Route #135: 1 46 1 
Route #136: 1 140 1 
Route #137: 1 43 1 
Route #138: 1 75 1 
Route #139: 1 115 1 
Route #140: 1 151 199 1 
Route #141: 1 10 1 
Route #142: 1 92 1 
Route #143: 1 80 1 
Route #144: 1 142 88 1 
Route #145: 1 54 1 
Route #146: 1 145 201 1 
Route #147: 1 113 1 
Route #148: 1 196 1 
Route #149: 1 182 1 
Route #150: 1 91 1 
Route #151: 1 22 1 
Route #152: 1 176 1 
Route #153: 1 180 1 
Route #154: 1 153 25 1 
Route #155: 1 147 1 
Route #156: 1 37 1 
Route #157: 1 77 1 
Route #158: 1 17 141 1 
Route #159: 1 8 1 
Route #160: 1 170 1 
Route #161: 1 192 1 
Route #162: 1 56 1 
Route #163: 1 194 1 
Route #164: 1 135 1 
Route #165: 1 71 1 

Cost 300008
Time 30.4089


 * Another infos *

 Iterations: 524 Time: 30.4089 sec - 0.5068 min - 0.0084 horas
0.0000 h 0.5068 min
Problem dimension: 524
